DIMENSION: 10
EDGE_WEIGHT_TYPE: EXPLICIT
EDGE_WEIGHT_FORMAT: FULL_MATRIX
EDGE_WEIGHT_SECTION:
32767 79 37 67 46 19 55 22 81 32767 
79 32767 21 39 12 91 32 74 41 100 
37 21 32767 68 32767 55 23 16 32767 32767 
67 39 68 32767 32767 40 85 32767 24 50 
46 12 32767 32767 32767 89 38 34 81 58 
19 91 55 40 89 32767 31 77 37 62 
55 32 23 85 38 31 32767 27 41 64 
22 74 16 32767 34 77 27 32767 5 86 
81 41 32767 24 81 37 41 5 32767 74 
32767 100 32767 50 58 62 64 86 74 32767 
EOF